% Generated FlatZinc statistics:
%%%mzn-stat: paths=0
%%%mzn-stat: flatBoolVars=1399
%%%mzn-stat: flatIntVars=185
%%%mzn-stat: flatBoolConstraints=429
%%%mzn-stat: flatIntConstraints=1562
%%%mzn-stat: evaluatedReifiedConstraints=118
%%%mzn-stat: evaluatedHalfReifiedConstraints=1281
%%%mzn-stat: eliminatedLinearConstraints=1
%%%mzn-stat: method="minimize"
%%%mzn-stat: flatTime=0.107636
%%%mzn-stat-end
end = 65
carga_por_operario = [35, 35, 34, 34]
desbalance = 1
Job 1:   7(op:1)  18(op:1)  39(op:1)  54(op:3)  57(op:4)
Job 2:   4(op:1)   9(op:2)  12(op:2)  20(op:2)  28(op:3)
Job 3:  13(op:1)  15(op:1)  24(op:1)  36(op:3)  44(op:3)
Job 4:  16(op:3)  24(op:3)  32(op:2)  52(op:2)  54(op:2)
Job 5:  15(op:3)  17(op:1)  28(op:1)  44(op:4)  52(op:4)
Job 6:   0(op:3)   4(op:2)  20(op:3)  28(op:4)  36(op:4)
----------
%%%mzn-stat: initTime=0.0077823
%%%mzn-stat: solveTime=59.8921
%%%mzn-stat: solutions=31
%%%mzn-stat: variables=1586
%%%mzn-stat: propagators=1991
%%%mzn-stat: propagations=952185260
%%%mzn-stat: nodes=8615337
%%%mzn-stat: failures=4307617
%%%mzn-stat: restarts=0
%%%mzn-stat: peakDepth=62
%%%mzn-stat-end
%%%mzn-stat: nSolutions=1
%%%mzn-stat-end
